
Gurobi 6.5.2 (linux64) logging started Wed Aug 31 10:35:28 2016

Optimize a model with 101 rows, 908 columns and 1817 nonzeros
Coefficient statistics:
  Matrix range    [1e+00, 2e+00]
  Objective range [2e+00, 1e+02]
  Bounds range    [1e+00, 1e+00]
  RHS range       [1e+00, 1e+00]
Found heuristic solution: objective 2509
Presolve removed 51 rows and 50 columns
Presolve time: 0.00s
Presolved: 50 rows, 858 columns, 1716 nonzeros
Variable types: 0 continuous, 858 integer (858 binary)

Root relaxation: objective 6.615000e+02, 78 iterations, 0.00 seconds

    Nodes    |    Current Node    |     Objective Bounds      |     Work
 Expl Unexpl |  Obj  Depth IntInf | Incumbent    BestBd   Gap | It/Node Time

     0     0  661.50000    0   18 2509.00000  661.50000  73.6%     -    0s
H    0     0                     716.0000000  661.50000  7.61%     -    0s
H    0     0                     672.0000000  661.50000  1.56%     -    0s
     0     0  664.00000    0    8  672.00000  664.00000  1.19%     -    0s
     0     0  664.00000    0   18  672.00000  664.00000  1.19%     -    0s
     0     0  665.50000    0    6  672.00000  665.50000  0.97%     -    0s
     0     0  668.00000    0    6  672.00000  668.00000  0.60%     -    0s
     0     0  668.00000    0   15  672.00000  668.00000  0.60%     -    0s
*    0     0               0     670.0000000  670.00000  0.00%     -    0s

Cutting planes:
  Gomory: 5
  Zero half: 3

Explored 0 nodes (212 simplex iterations) in 0.02 seconds
Thread count was 8 (of 8 available processors)

Optimal solution found (tolerance 1.00e-04)
Best objective 6.700000000000e+02, best bound 6.700000000000e+02, gap 0.0%
